NAME: random_10_5
TYPE: TSP
COMMENT: random_10_5
DIMENSION: 10
EDGE_WEIGHT_TYPE: EUC_2D
NODE_COORD_SECTION
1 431 255
2 272 422
3 432 432
4 337 367
5 85 435
6 199 420
7 477 481
8 147 165
9 253 30
10 123 123
